n_potions = 66;
alchemy = [2, 5, 3, 3, 4, 2, 1, 4, 1, 1, 3, 5, 5, 4, 2, 4, 4, 3, 4, 2, 5, 5, 2, 2, 4, 5, 3, 4, 2, 3, 1, 4, 3, 1, 1, 2, 3, 3, 1, 5, 1, 2, 4, 5, 5, 5, 4, 1, 2, 3, 5, 3, 1, 4, 1, 5, 5, 5, 3, 5, 3, 1, 3, 3, 3, 4];
n_days = 12;
min_potions = 5;
max_potions = 7;
min_alchemists = 5;
max_alchemists = 35;
prereqs = [|7,1
|8,2
|8,6
|10,5
|11,5
|12,7
|13,11
|16,9
|17,10
|17,11
|18,10
|18,11
|19,8
|19,11
|20,9
|23,17
|24,13
|24,19
|26,23
|30,9
|32,9
|33,27
|34,17
|35,9
|35,17
|35,18
|37,20
|37,30
|37,35
|39,35
|41,9
|41,18
|43,20
|44,16
|45,38
|47,42
|48,35
|49,30
|50,43
|51,33
|53,47
|54,50
|55,38
|57,39
|57,34
|58,28
|61,48
|61,55
|62,31
|63,48
|];
